88
22
0 23 27 29 31 33 34 35 36 37 38 39 40 41 42 43 46 47 49 53 54 57 59 60 61 65 67 68 69 70 73 74 75 76 77 78 80 82 83 84 85 87
1 23 24 25 30 31 34 36 37 39 40 41 45 46 47 48 49 52 54 57 58 60 61 65 66 67 68 69 73 74 75 76 77 80 81 82 83 84 85 86
2 23 27 28 31 32 34 36 40 41 46 47 49 51 53 54 55 58 61 62 63 64 65 67 68 70 71 73 75 76 77 78 82 83 84 85 86
3 23 25 28 29 30 32 34 36 39 41 42 43 45 46 47 49 52 54 57 58 59 61 63 64 65 67 70 71 74 75 76 77 78 80 81 82 83 84 85 86
4 22 29 30 36 38 39 41 42 45 46 47 49 54 57 58 60 61 63 64 67 69 70 73 74 75 76 77 79 81 82 83 84 85 86
5 22 23 24 28 34 36 39 40 41 42 45 46 48 51 52 55 60 63 64 65 66 68 70 71 72 74 75 77 80 82 83 85 86 87
6 23 24 28 31 32 33 34 35 36 38 41 44 45 46 47 51 53 54 58 61 63 64 65 67 68 69 72 73 75 76 81 82 85 87
7 26 28 31 32 33 34 36 38 42 43 47 50 53 54 57 58 60 61 69 70 71 73 74 77 81 82 84 87
8 29 30 35 40 41 44 45 46 47 53 54 60 61 62 64 65 68 69 70 72 74 76 81 82 83 84
9 22 25 30 33 39 40 41 42 46 47 54 57 58 60 65 66 67 68 70 72 73 76 78 81 83 84
10 23 29 30 31 34 38 39 40 42 43 45 46 49 52 54 55 57 58 63 67 68 70 72 73 74 75 76 83 84 87
11 23 28 29 30 31 32 33 35 36 37 39 45 46 47 52 53 55 57 58 64 65 68 73 77 81 82 84 85 86 87
12 23 27 31 32 34 36 39 42 43 44 45 48 49 53 54 58 60 61 64 65 67 68 70 73 74 76 81 83 86
13 24 28 32 35 36 38 42 43 55 56 62 63 64 66 69 71 72 77 78 80 81 82
14 22 24 28 29 30 31 32 36 37 40 46 67 68 69 70 75 76 77 79 80 85
15 22 28 29 31 35 37 39 41 43 45 46 47 51 53 57 61 62 65 66 70 77 80 82 83 84
16 23 26 31 33 35 36 42 52 57 58 61 63 73 76 78 85
17 25 29 30 38 40 43 49 52 57 59 72 76 77
18 25 30 33 34 38 48 49 54 60 73 75 80 84 85
19 27 39 40 42 52 54 55 66
20 23 29 34 35 50 55 62 68 71 75
21 47 54 58
